# 2018 Dec 12
units    metal

# variables
variable F equal -0.000269*0.06242  # C-C=1.43876, F*2atoms/area-of-hex-ring(5.3781A^2)=1MPa

variable ITV1 equal 1000 # dump/thermo interval
variable ITV2 equal 5000
variable ITV3 equal 10000

variable RA equal 0.0 # rotation angle
variable BL equal 1.43876 # C-C bond length, A

variable T equal 100.0
variable damp23 equal 1.0
variable damp45 equal 1.0

variable V equal 0.02 # velocity of slider: 0.02A/ps, i.e. 2m/s
variable KN equal 0.1196*0.06242 # normal spring: totally KN*N(l1)=100N/m
variable KL equal 10.0*0.06242 # slider-hi spring: 10N/m
variable KX equal 0.01196*0.06242# side spring: totally KX*N(l6)=10N/m

variable Ksc equal 10*0.06242 # pillar-l6 spring, eq to 10N/m
variable R0 equal ${BL}*0.5 # R0 in fix-spring-couple
variable Xsc equal ${R0}*sin((30-${RA})/180*PI)*(-1) # vector X-component in fix-spring-couple
variable Ysc equal ${R0}*cos((30-${RA})/180*PI)*(-1) # vector Y-component in fix-spring-couple

atom_style    full
dimension    3
boundary    p p s
timestep    0.001 # i.e. 1fs

read_data    inf0.data # each layer has 836 atoms

# define groups
group    l1 type 1
group    l2 type 2
group    l3 type 3
group    lo type 1 2 3

group    l4 type 4
group    l5 type 5
group    l6 type 6
group    hi type 4 5 6

# vertex of l1 l2 l3
group    v1 id 1 2 43 44 794 836
group    v2 id 837 838 879 880 1630 1672
group    v3 id 1673 1674 1715 1716 2466 2508
# vertex of l4 l5 l6
group    v4 id 2925 2926 2927 2928 2969 2971
group    v5 id 3761 3762 3763 3764 3805 3807
group    v6 id 4597 4598 4599 4600 4641 4643

# group    O  type 7
group    st union l1 l6 # static

# subtract/add vertex
group    sub4 subtract l4 v4
group    sub5 subtract l5 v5
group    add6 union l6 v4 v5

group    add1 union l1 v2 v3
group    sub2 subtract l2 v2
group    sub3 subtract l3 v3

group    fa union l3 l4 # interface, Newtonian
group    ts union l2 l5 # apply thermostat
group    fats union fa ts

# group in
# group edge
# group between

# interaction
pair_style    hybrid/overlay tersoff ilp/graphene/hbn 16.0 0 lj/cut 10.0 # ILP, no taper
pair_coeff    * *  tersoff C.opt.tersoff NULL C(O) C(O) C(O) C(O) C(O) # NULL
# interlayer C: ILP
pair_coeff    * *  ilp/graphene/hbn BNCH.ILP C C C C C C # NULL
# l1 and l6
#pair_coeff    1 1  lj/cut 0.0 0.0
#pair_coeff    6 6  lj/cut 0.0 0.0


neighbor      2.0 bin
neigh_modify  one 20000 page 200000

# computes and thermo
compute  1  l4  reduce ave z
# compute  R  hi  group/group lo    # MAY NOT SUPPORTED BY KC POTENTIAL
# compute  IN  in  group/group lo   # in-lo  interaction
# compute  E1  e1  group/group lo   # edge-lo interaction
# compute  M1  m1  group/group lo   # 1st transition region-sub interaction

thermo_style  custom step c_1 press temp etotal
thermo      100 #${ITV1}
#dump        1 all atom ${ITV1} fric.lammpstrj
#dump_modify 1 sort 1 first no

# minimize
minimize    1.0e-5 1.0e-5 1000 10000

reset_timestep 0

velocity all create ${T} 4928459 rot yes dist gaussian


fix    n1  fats  nve

fix    n16 l6    nve

run 1000000
